p edges 350 1182
e 1 8
e 1 20
e 1 36
e 1 66
e 1 106
e 1 123
e 1 191
e 1 232
e 1 314
e 2 41
e 2 58
e 2 94
e 2 121
e 2 143
e 2 146
e 2 203
e 2 207
e 2 234
e 2 255
e 2 321
e 3 49
e 3 73
e 3 161
e 3 208
e 3 248
e 3 263
e 4 118
e 4 149
e 4 166
e 4 227
e 4 305
e 4 336
e 5 79
e 5 182
e 5 263
e 6 64
e 6 121
e 6 150
e 6 199
e 6 315
e 6 326
e 6 332
e 7 22
e 7 27
e 7 105
e 7 108
e 7 121
e 7 141
e 7 170
e 7 185
e 7 256
e 7 291
e 7 311
e 8 23
e 8 32
e 8 53
e 8 128
e 8 201
e 8 229
e 8 280
e 9 31
e 9 128
e 9 135
e 9 203
e 9 214
e 9 216
e 9 318
e 9 343
e 10 198
e 10 273
e 10 317
e 10 341
e 11 297
e 12 14
e 12 23
e 12 29
e 12 218
e 13 19
e 13 126
e 13 176
e 13 343
e 14 23
e 14 35
e 14 231
e 14 290
e 15 47
e 15 58
e 15 63
e 15 87
e 15 132
e 15 261
e 15 268
e 15 271
e 16 95
e 16 207
e 16 224
e 16 319
e 16 320
e 17 46
e 17 225
e 17 254
e 17 258
e 17 284
e 18 63
e 18 91
e 18 113
e 18 118
e 18 130
e 18 170
e 18 222
e 18 333
e 19 40
e 19 54
e 19 97
e 19 189
e 19 254
e 19 266
e 19 269
e 19 273
e 19 331
e 19 350
e 20 73
e 20 81
e 20 92
e 20 160
e 20 165
e 20 166
e 20 234
e 20 257
e 20 347
e 21 26
e 21 29
e 21 38
e 21 49
e 21 53
e 21 72
e 21 152
e 21 184
e 21 220
e 21 254
e 21 275
e 21 332
e 21 349
e 22 153
e 22 201
e 22 212
e 22 250
e 22 265
e 22 303
e 23 104
e 23 166
e 23 171
e 23 290
e 23 349
e 24 44
e 24 80
e 24 145
e 24 289
e 25 33
e 25 156
e 25 162
e 25 325
e 25 333
e 26 79
e 26 168
e 26 262
e 26 280
e 26 316
e 26 324
e 27 83
e 27 93
e 27 240
e 27 282
e 28 53
e 28 102
e 28 248
e 28 311
e 28 312
e 29 62
e 29 75
e 29 79
e 29 85
e 29 90
e 29 118
e 29 131
e 29 154
e 29 173
e 29 274
e 29 306
e 30 114
e 30 138
e 30 190
e 30 301
e 30 340
e 31 78
e 31 149
e 31 221
e 31 256
e 32 112
e 32 120
e 32 196
e 32 216
e 32 268
e 33 84
e 33 180
e 33 220
e 33 294
e 34 38
e 34 118
e 34 133
e 34 135
e 34 211
e 34 231
e 34 309
e 34 315
e 34 331
e 35 69
e 35 185
e 35 237
e 35 244
e 35 253
e 35 255
e 35 291
e 36 92
e 36 98
e 36 120
e 36 158
e 36 201
e 36 248
e 36 268
e 36 314
e 36 317
e 37 116
e 37 176
e 37 246
e 37 296
e 38 120
e 38 180
e 38 260
e 38 263
e 38 330
e 38 349
e 39 211
e 39 298
e 39 313
e 39 334
e 39 336
e 40 60
e 40 99
e 40 120
e 41 53
e 41 82
e 41 91
e 41 111
e 41 142
e 41 172
e 41 243
e 41 273
e 41 289
e 41 313
e 42 54
e 42 96
e 42 97
e 42 174
e 42 179
e 42 211
e 42 288
e 43 79
e 43 161
e 43 201
e 43 235
e 43 299
e 44 45
e 44 68
e 44 321
e 45 160
e 45 211
e 45 277
e 45 307
e 45 317
e 46 80
e 46 312
e 46 327
e 47 59
e 47 109
e 47 152
e 47 167
e 47 225
e 47 283
e 47 344
e 48 49
e 48 52
e 48 67
e 48 102
e 48 138
e 48 242
e 48 271
e 48 282
e 49 112
e 49 332
e 49 335
e 50 54
e 50 83
e 50 119
e 50 133
e 50 161
e 50 162
e 50 204
e 50 213
e 51 68
e 51 118
e 51 174
e 51 191
e 51 231
e 51 297
e 51 349
e 52 56
e 52 92
e 52 122
e 52 184
e 52 227
e 52 254
e 52 259
e 52 274
e 52 281
e 53 131
e 53 334
e 54 74
e 54 84
e 54 97
e 54 100
e 54 108
e 54 111
e 54 211
e 54 289
e 54 292
e 54 319
e 54 322
e 55 71
e 55 203
e 55 279
e 55 311
e 55 341
e 56 74
e 56 141
e 56 272
e 56 283
e 56 304
e 56 344
e 57 89
e 57 163
e 57 222
e 57 278
e 57 284
e 57 290
e 57 323
e 58 113
e 58 244
e 58 255
e 58 271
e 58 288
e 58 309
e 59 105
e 59 171
e 59 172
e 59 174
e 59 261
e 59 266
e 59 269
e 60 71
e 60 79
e 60 87
e 60 164
e 60 284
e 60 286
e 60 300
e 60 303
e 61 164
e 61 171
e 61 227
e 61 235
e 61 241
e 61 281
e 61 291
e 61 304
e 61 345
e 62 73
e 62 152
e 62 274
e 63 152
e 63 226
e 63 277
e 63 294
e 63 303
e 63 307
e 64 69
e 64 84
e 64 104
e 64 113
e 64 118
e 64 160
e 64 198
e 64 259
e 65 123
e 65 206
e 65 260
e 65 344
e 66 91
e 66 112
e 66 198
e 66 255
e 66 282
e 66 290
e 67 93
e 67 107
e 67 113
e 67 118
e 67 239
e 67 332
e 68 70
e 68 78
e 68 85
e 68 183
e 68 204
e 68 253
e 68 296
e 68 330
e 69 77
e 69 119
e 69 205
e 70 77
e 70 96
e 70 107
e 70 178
e 70 303
e 70 310
e 70 350
e 71 89
e 71 192
e 71 193
e 71 241
e 71 246
e 71 301
e 71 320
e 72 83
e 72 112
e 72 205
e 72 221
e 72 284
e 72 302
e 72 347
e 73 90
e 73 195
e 73 276
e 74 98
e 74 150
e 74 164
e 74 178
e 74 191
e 74 206
e 74 237
e 74 247
e 74 262
e 74 312
e 75 117
e 75 234
e 75 267
e 76 142
e 76 152
e 76 185
e 76 214
e 76 249
e 76 287
e 76 308
e 76 310
e 77 116
e 77 150
e 77 184
e 78 84
e 78 123
e 78 305
e 79 322
e 80 90
e 80 98
e 80 300
e 81 133
e 81 158
e 81 168
e 81 188
e 81 224
e 81 322
e 82 90
e 82 155
e 82 196
e 82 293
e 82 302
e 82 308
e 82 314
e 83 89
e 83 142
e 83 152
e 83 171
e 83 202
e 83 239
e 83 347
e 84 239
e 84 272
e 84 284
e 85 153
e 85 211
e 85 222
e 85 238
e 85 243
e 85 282
e 85 284
e 85 314
e 86 112
e 86 116
e 86 177
e 86 341
e 87 99
e 87 156
e 87 158
e 87 194
e 87 229
e 87 330
e 88 110
e 88 121
e 88 176
e 88 203
e 88 319
e 88 320
e 89 189
e 89 193
e 89 313
e 90 133
e 90 187
e 90 203
e 90 226
e 90 290
e 91 140
e 91 178
e 91 274
e 91 287
e 92 142
e 92 209
e 92 315
e 92 327
e 93 152
e 93 220
e 93 229
e 93 304
e 94 159
e 94 245
e 94 257
e 94 275
e 94 326
e 94 331
e 95 161
e 96 146
e 96 172
e 96 180
e 96 196
e 96 339
e 96 347
e 96 349
e 97 135
e 97 153
e 97 197
e 98 134
e 98 171
e 98 212
e 98 292
e 98 296
e 98 339
e 99 211
e 99 243
e 99 269
e 99 331
e 100 146
e 100 196
e 100 202
e 100 344
e 101 164
e 101 244
e 101 249
e 101 255
e 101 298
e 102 114
e 102 173
e 102 261
e 102 279
e 102 314
e 102 322
e 102 325
e 102 337
e 103 104
e 103 203
e 103 207
e 103 208
e 103 274
e 103 288
e 103 317
e 103 322
e 104 148
e 104 293
e 105 137
e 105 166
e 105 327
e 106 132
e 106 148
e 106 151
e 106 206
e 106 292
e 106 306
e 107 111
e 107 125
e 107 126
e 107 212
e 107 238
e 107 249
e 107 320
e 107 345
e 108 206
e 108 239
e 108 256
e 108 270
e 109 145
e 109 161
e 109 266
e 109 285
e 110 114
e 110 135
e 110 244
e 110 303
e 110 346
e 111 115
e 111 188
e 111 201
e 111 203
e 111 222
e 112 179
e 112 200
e 112 260
e 112 270
e 112 297
e 112 329
e 113 194
e 113 197
e 113 257
e 113 298
e 114 134
e 114 192
e 114 210
e 114 225
e 114 286
e 114 288
e 114 341
e 114 348
e 115 127
e 115 136
e 115 138
e 115 160
e 115 215
e 115 282
e 116 191
e 116 208
e 116 231
e 116 234
e 116 245
e 116 294
e 116 339
e 117 138
e 117 186
e 117 192
e 117 278
e 117 294
e 117 319
e 118 148
e 118 221
e 118 271
e 118 289
e 118 291
e 119 175
e 119 182
e 119 238
e 120 203
e 120 220
e 120 226
e 120 349
e 121 211
e 121 220
e 121 297
e 122 134
e 122 203
e 122 279
e 123 222
e 123 229
e 123 276
e 123 328
e 124 142
e 126 158
e 126 242
e 126 258
e 127 291
e 127 295
e 128 336
e 130 275
e 130 315
e 131 177
e 131 180
e 131 192
e 131 328
e 131 332
e 131 344
e 132 185
e 132 299
e 132 316
e 133 149
e 133 171
e 133 221
e 133 242
e 133 310
e 133 338
e 134 170
e 134 224
e 134 339
e 135 139
e 135 190
e 136 150
e 136 168
e 136 204
e 136 281
e 136 326
e 136 342
e 137 143
e 137 270
e 137 312
e 138 139
e 138 180
e 138 236
e 138 270
e 138 299
e 138 333
e 139 141
e 139 172
e 139 187
e 139 215
e 140 266
e 140 274
e 140 297
e 140 299
e 140 349
e 141 176
e 141 233
e 141 248
e 141 273
e 142 244
e 142 279
e 142 311
e 143 194
e 143 197
e 143 251
e 143 305
e 144 150
e 144 166
e 144 194
e 144 226
e 144 256
e 144 258
e 144 348
e 145 161
e 145 178
e 145 208
e 145 262
e 145 264
e 145 276
e 146 220
e 146 249
e 146 338
e 147 166
e 147 188
e 147 304
e 148 164
e 148 172
e 148 212
e 148 241
e 148 256
e 148 257
e 148 341
e 149 162
e 149 187
e 149 256
e 149 266
e 149 315
e 150 158
e 150 181
e 150 182
e 150 206
e 150 300
e 150 330
e 150 345
e 151 189
e 151 195
e 151 302
e 152 227
e 152 231
e 152 283
e 152 313
e 152 340
e 153 209
e 153 228
e 153 233
e 153 322
e 154 171
e 154 208
e 154 249
e 154 256
e 154 324
e 155 157
e 155 296
e 155 301
e 155 306
e 156 207
e 156 260
e 156 307
e 157 177
e 157 250
e 158 238
e 158 298
e 158 315
e 158 347
e 159 174
e 159 191
e 159 227
e 159 271
e 159 315
e 159 324
e 160 167
e 160 253
e 160 305
e 161 200
e 161 234
e 161 238
e 161 243
e 161 322
e 161 337
e 162 186
e 162 204
e 162 211
e 162 242
e 162 266
e 163 176
e 163 238
e 163 266
e 163 318
e 164 282
e 164 288
e 164 297
e 164 315
e 165 196
e 165 216
e 165 267
e 165 312
e 166 260
e 166 307
e 167 206
e 167 240
e 167 269
e 167 284
e 167 296
e 168 170
e 168 241
e 168 282
e 168 295
e 169 209
e 169 331
e 169 334
e 170 211
e 170 214
e 170 224
e 170 250
e 170 301
e 171 184
e 171 197
e 171 202
e 171 242
e 171 263
e 171 306
e 171 314
e 172 178
e 172 240
e 172 267
e 172 269
e 172 284
e 172 290
e 173 212
e 173 220
e 173 325
e 174 175
e 174 200
e 174 273
e 174 298
e 174 320
e 174 338
e 175 233
e 175 317
e 176 211
e 176 238
e 176 287
e 177 202
e 177 276
e 177 309
e 177 310
e 177 338
e 178 239
e 178 348
e 179 208
e 179 231
e 180 220
e 180 268
e 180 289
e 180 338
e 181 232
e 181 319
e 182 203
e 182 269
e 182 295
e 182 299
e 182 338
e 183 222
e 183 268
e 183 317
e 184 342
e 185 188
e 185 230
e 185 267
e 186 198
e 186 244
e 186 246
e 186 272
e 188 229
e 188 248
e 189 207
e 189 222
e 189 326
e 190 195
e 190 207
e 190 257
e 190 275
e 190 346
e 191 196
e 191 292
e 191 343
e 192 214
e 193 218
e 193 248
e 193 276
e 195 246
e 195 291
e 195 332
e 195 344
e 197 237
e 197 238
e 198 212
e 198 309
e 198 340
e 199 217
e 200 230
e 200 314
e 200 339
e 201 237
e 201 279
e 201 326
e 202 234
e 202 281
e 203 255
e 203 306
e 203 323
e 205 246
e 205 254
e 205 322
e 206 207
e 206 209
e 206 233
e 206 303
e 206 307
e 206 327
e 207 229
e 207 235
e 208 267
e 208 342
e 209 329
e 210 280
e 210 295
e 210 307
e 211 296
e 212 278
e 212 282
e 212 312
e 212 313
e 212 345
e 214 233
e 214 259
e 214 303
e 215 231
e 215 286
e 215 319
e 216 219
e 216 266
e 216 276
e 216 293
e 216 348
e 217 290
e 218 273
e 218 295
e 219 231
e 219 321
e 220 268
e 220 310
e 220 350
e 221 269
e 221 287
e 221 289
e 221 328
e 222 246
e 222 252
e 222 258
e 222 271
e 222 276
e 222 284
e 222 318
e 222 319
e 223 294
e 223 343
e 224 250
e 224 253
e 224 273
e 224 284
e 224 320
e 225 264
e 225 289
e 226 232
e 228 299
e 228 346
e 229 292
e 230 337
e 232 241
e 233 270
e 233 338
e 234 275
e 234 340
e 235 245
e 235 335
e 236 310
e 236 314
e 236 333
e 236 342
e 238 296
e 238 332
e 239 303
e 239 338
e 239 350
e 240 330
e 240 343
e 241 299
e 241 319
e 242 246
e 242 253
e 242 315
e 242 330
e 243 259
e 243 305
e 244 307
e 244 330
e 245 254
e 245 306
e 245 329
e 246 330
e 247 264
e 248 280
e 248 287
e 249 349
e 250 328
e 251 315
e 251 341
e 251 347
e 252 294
e 252 316
e 252 317
e 253 276
e 253 289
e 253 304
e 253 305
e 253 327
e 254 283
e 254 325
e 254 334
e 254 343
e 257 290
e 258 265
e 258 307
e 258 312
e 259 316
e 259 330
e 260 271
e 260 311
e 260 348
e 261 324
e 262 288
e 262 290
e 263 279
e 263 319
e 263 323
e 264 329
e 264 339
e 265 285
e 265 346
e 267 268
e 267 278
e 268 322
e 268 343
e 269 273
e 270 284
e 270 293
e 271 303
e 274 290
e 275 283
e 275 306
e 276 287
e 276 293
e 277 299
e 279 331
e 280 283
e 280 285
e 280 335
e 281 322
e 283 346
e 284 294
e 284 297
e 284 327
e 286 331
e 286 335
e 288 335
e 288 339
e 288 340
e 288 350
e 289 306
e 290 297
e 290 327
e 292 315
e 292 330
e 293 302
e 293 304
e 293 323
e 293 340
e 294 312
e 295 296
e 295 304
e 296 309
e 299 301
e 299 319
e 299 339
e 300 315
e 300 327
e 302 324
e 302 338
e 303 315
e 304 326
e 306 325
e 308 329
e 309 323
e 311 333
e 312 332
e 321 343
e 322 342
e 323 341
e 326 328
e 326 349
e 336 349
e 338 350
e 344 347
